NAME          COPTPROB
OBJSENSE
  MIN
ROWS
 N  __OBJ___
 L  C1      
 L  C2      
 L  C3      
 L  C6      
 L  C9      
 L  C11     
 L  C12     
 L  C15     
 L  C17     
 L  C18     
 L  C20     
 L  C21     
 L  C22     
 L  C23     
 L  C24     
 L  C25     
 L  C26     
 L  C28     
 L  C29     
 L  C30     
 L  C32     
 L  C34     
 L  C35     
 L  C36     
 L  C38     
 L  C39     
 L  C40     
 L  C41     
 L  C43     
 L  C44     
 L  C45     
 L  C47     
 L  C48     
 L  C50     
 L  C51     
 L  C52     
 L  C54     
 L  C55     
 L  C56     
 L  C57     
 L  C59     
 L  C60     
 L  C61     
 L  C67     
 L  C68     
 L  C69     
 L  C70     
 L  C72     
 L  C73     
 L  C74     
 L  C76     
 L  C78     
 L  C79     
 L  C81     
 L  C82     
 L  C83     
 L  C84     
 L  C85     
 L  C86     
 L  C88     
 L  C89     
 L  C90     
 L  C91     
 L  C92     
 L  C94     
 L  C96     
 L  C97     
 L  C98     
 L  C100    
 L  C101    
 L  C102    
 L  C103    
 L  C104    
 L  C109    
 L  C110    
 L  C111    
 L  C112    
 L  C113    
 L  C114    
 L  C115    
 L  C116    
 L  C117    
 L  C118    
 L  C119    
 L  C120    
 L  C121    
 L  C122    
 L  C125    
 L  C126    
 L  C127    
 L  C129    
 L  C132    
 L  C133    
 L  C138    
 L  C143    
 L  C145    
 L  C146    
 L  C148    
 L  C150    
 L  C151    
 L  C153    
 L  C154    
 L  C156    
 L  C157    
 L  C159    
 L  C161    
 L  C162    
 L  C163    
 L  C165    
 L  C166    
 L  C167    
 L  C171    
 L  C172    
 L  C175    
 L  C177    
 L  C179    
 L  C181    
 L  C182    
 L  C185    
 L  C187    
 L  C189    
 L  C191    
 L  C192    
 L  C195    
 L  C197    
 L  C200    
 L  C201    
 L  C202    
 L  C203    
 L  C204    
 L  C205    
 L  C206    
 L  C207    
 L  C208    
 L  C209    
 L  C210    
 L  C211    
 L  C215    
 L  C216    
 L  C217    
 L  C218    
 L  C221    
 L  C222    
 L  C225    
 L  C226    
 L  C229    
 L  C230    
 L  C232    
 L  C236    
 L  C237    
 L  C238    
 L  C239    
 L  C241    
 L  C242    
 L  C243    
 L  C245    
 L  C247    
 L  C250    
 L  C251    
 L  C252    
 L  C254    
 L  C255    
 L  C257    
 L  C258    
 L  C259    
 L  C260    
 L  C261    
 L  C262    
 L  C266    
 L  C268    
 L  C271    
 L  C273    
 L  C274    
 L  C277    
 L  C278    
 L  C279    
 L  C281    
 L  C282    
 L  C283    
 L  C284    
 L  C286    
 L  C287    
 L  C293    
 L  C294    
 L  C295    
 L  C296    
 L  C297    
 L  C300    
 L  C301    
 L  C302    
 L  C306    
 L  C307    
 L  C310    
 L  C311    
 L  C312    
 L  C313    
 L  C314    
 L  C315    
 L  C316    
 L  C318    
 L  C320    
 L  C321    
 L  C322    
 L  C323    
 L  C324    
 L  C326    
 L  C327    
 L  C329    
 L  C330    
 L  C332    
 L  C333    
 L  C337    
 L  C338    
 L  C339    
 L  C340    
 L  C341    
 L  C343    
 L  C346    
 L  C349    
 L  C350    
 L  C353    
 L  C354    
 L  C355    
 L  C357    
 L  C359    
 L  C362    
 L  C365    
 L  C366    
 L  C370    
 L  C371    
 L  C372    
 L  C373    
 L  C374    
 L  C375    
 L  C376    
 L  C377    
 L  C379    
 L  C380    
 L  C381    
 L  C382    
 L  C383    
 L  C384    
 L  C387    
 L  C389    
 L  C390    
 L  C391    
 L  C393    
 L  C394    
 L  C395    
 L  C396    
 L  C399    
 L  C400    
 L  C404    
 L  C407    
 L  C409    
 L  C411    
 L  C412    
 L  C413    
 L  C414    
 L  C416    
 L  C417    
 L  C420    
 L  C422    
 L  C423    
 L  C424    
 L  C425    
 L  C428    
 L  C431    
 L  C432    
 L  C433    
 L  C434    
 L  C435    
 L  C436    
 L  C437    
 L  C438    
 L  C440    
 L  C441    
 L  C444    
 L  C445    
 L  C446    
 L  C447    
 L  C448    
 L  C451    
 L  C455    
 L  C457    
 L  C458    
 L  C460    
 L  C466    
 L  C467    
 L  C471    
 L  C473    
 L  C476    
 L  C478    
 L  C479    
 L  C482    
 L  C488    
 L  C489    
 L  C490    
 L  C491    
 L  C492    
 L  C497    
 L  C499    
 L  C502    
 L  C503    
 L  C504    
 L  C506    
 L  C509    
 L  C510    
 L  C511    
 L  C512    
 L  C513    
 L  C518    
 L  C523    
 L  C526    
 L  C527    
 L  C528    
 L  C534    
 L  C535    
 L  C537    
 L  C539    
 L  C543    
 L  C544    
 L  C547    
 L  C548    
 L  C550    
 L  C552    
 L  C556    
 L  C557    
 L  C558    
 L  C559    
 L  C562    
 L  C565    
COLUMNS
    MARKER    'MARKER'                 'INTORG'
    x1        __OBJ___  -1
    x1        C18       1
    x1        C35       1
    x1        C45       1
    x1        C238      1
    x1        C279      1
    x1        C284      1
    x1        C346      1
    x1        C349      1
    x1        C399      1
    x1        C544      1
    x1        C550      1
    x1        C556      1
    x2        __OBJ___  -1
    x2        C38       1
    x2        C59       1
    x2        C460      1
    x3        __OBJ___  -1
    x3        C15       1
    x3        C40       1
    x3        C61       1
    x3        C111      1
    x3        C189      1
    x3        C354      1
    x3        C383      1
    x3        C435      1
    x3        C506      1
    x4        __OBJ___  -1
    x4        C67       1
    x4        C90       1
    x4        C109      1
    x4        C154      1
    x4        C316      1
    x4        C445      1
    x4        C492      1
    x4        C526      1
    x4        C539      1
    x4        C558      1
    x7        __OBJ___  -1
    x7        C45       1
    x7        C109      1
    x7        C113      1
    x7        C237      1
    x7        C258      1
    x7        C294      1
    x7        C311      1
    x7        C339      1
    x7        C458      1
    x9        __OBJ___  -1
    x9        C25       1
    x9        C43       1
    x9        C55       1
    x9        C76       1
    x9        C81       1
    x9        C89       1
    x9        C120      1
    x9        C122      1
    x9        C129      1
    x9        C218      1
    x9        C247      1
    x9        C262      1
    x9        C273      1
    x9        C274      1
    x9        C307      1
    x9        C330      1
    x9        C349      1
    x9        C350      1
    x9        C359      1
    x9        C404      1
    x9        C502      1
    x10       __OBJ___  -1
    x10       C11       1
    x10       C25       1
    x10       C30       1
    x10       C43       1
    x10       C52       1
    x10       C67       1
    x10       C97       1
    x10       C110      1
    x10       C116      1
    x10       C122      1
    x10       C125      1
    x10       C151      1
    x10       C162      1
    x10       C202      1
    x10       C217      1
    x10       C225      1
    x10       C262      1
    x10       C273      1
    x10       C274      1
    x10       C284      1
    x10       C324      1
    x10       C330      1
    x10       C341      1
    x10       C349      1
    x10       C399      1
    x10       C407      1
    x10       C422      1
    x10       C526      1
    x10       C527      1
    x12       __OBJ___  -1
    x12       C102      1
    x12       C215      1
    x12       C236      1
    x12       C273      1
    x14       __OBJ___  -1
    x14       C28       1
    x14       C116      1
    x14       C125      1
    x14       C202      1
    x14       C203      1
    x14       C211      1
    x14       C284      1
    x14       C320      1
    x14       C354      1
    x14       C416      1
    x15       __OBJ___  -1
    x15       C56       1
    x15       C143      1
    x15       C165      1
    x15       C175      1
    x15       C322      1
    x15       C373      1
    x15       C390      1
    x15       C467      1
    x15       C539      1
    x16       __OBJ___  -1
    x16       C29       1
    x16       C38       1
    x16       C82       1
    x16       C88       1
    x16       C101      1
    x16       C119      1
    x16       C150      1
    x16       C156      1
    x16       C161      1
    x16       C179      1
    x16       C197      1
    x16       C206      1
    x16       C208      1
    x16       C277      1
    x16       C323      1
    x16       C326      1
    x16       C412      1
    x16       C423      1
    x16       C460      1
    x17       __OBJ___  -1
    x17       C120      1
    x17       C326      1
    x17       C390      1
    x17       C497      1
    x18       __OBJ___  -1
    x18       C68       1
    x18       C324      1
    x18       C341      1
    x18       C455      1
    x18       C526      1
    x19       __OBJ___  -1
    x19       C40       1
    x19       C47       1
    x19       C54       1
    x19       C88       1
    x19       C146      1
    x19       C161      1
    x19       C189      1
    x19       C221      1
    x19       C232      1
    x19       C257      1
    x19       C318      1
    x19       C346      1
    x19       C389      1
    x19       C412      1
    x19       C476      1
    x20       __OBJ___  -1
    x20       C56       1
    x20       C70       1
    x20       C283      1
    x20       C286      1
    x20       C301      1
    x20       C313      1
    x20       C337      1
    x20       C377      1
    x20       C417      1
    x21       __OBJ___  -1
    x21       C68       1
    x21       C104      1
    x21       C129      1
    x21       C156      1
    x21       C229      1
    x21       C447      1
    x22       __OBJ___  -1
    x22       C38       1
    x22       C315      1
    x22       C327      1
    x22       C377      1
    x22       C547      1
    x23       __OBJ___  -1
    x23       C20       1
    x23       C346      1
    x23       C565      1
    x24       __OBJ___  -1
    x24       C29       1
    x24       C146      1
    x24       C163      1
    x24       C166      1
    x24       C200      1
    x24       C239      1
    x24       C254      1
    x24       C257      1
    x24       C279      1
    x24       C287      1
    x24       C357      1
    x24       C370      1
    x24       C376      1
    x24       C412      1
    x24       C548      1
    x25       __OBJ___  -1
    x25       C94       1
    x25       C192      1
    x25       C215      1
    x25       C226      1
    x25       C296      1
    x25       C313      1
    x25       C333      1
    x25       C374      1
    x25       C400      1
    x25       C416      1
    x25       C428      1
    x26       __OBJ___  -1
    x26       C23       1
    x26       C55       1
    x26       C425      1
    x27       __OBJ___  -1
    x27       C11       1
    x27       C72       1
    x27       C96       1
    x27       C112      1
    x27       C122      1
    x27       C181      1
    x27       C191      1
    x27       C278      1
    x27       C293      1
    x27       C476      1
    x27       C489      1
    x27       C499      1
    x27       C509      1
    x27       C523      1
    x28       __OBJ___  -1
    x28       C34       1
    x28       C115      1
    x28       C221      1
    x28       C261      1
    x28       C296      1
    x28       C389      1
    x28       C478      1
    x29       __OBJ___  -1
    x29       C9        1
    x29       C211      1
    x29       C255      1
    x29       C382      1
    x29       C491      1
    x29       C509      1
    x30       __OBJ___  -1
    x30       C129      1
    x30       C202      1
    x30       C302      1
    x30       C343      1
    x31       __OBJ___  -1
    x31       C132      1
    x31       C324      1
    x31       C332      1
    x32       __OBJ___  -1
    x32       C1        1
    x32       C54       1
    x32       C260      1
    x32       C436      1
    x33       __OBJ___  -1
    x33       C2        1
    x33       C121      1
    x33       C216      1
    x33       C445      1
    x33       C548      1
    x34       __OBJ___  -1
    x34       C241      1
    x34       C281      1
    x34       C310      1
    x34       C489      1
    x34       C492      1
    x35       __OBJ___  -1
    x35       C113      1
    x35       C297      1
    x35       C321      1
    x35       C374      1
    x35       C434      1
    x36       __OBJ___  -1
    x36       C24       1
    x36       C447      1
    x37       __OBJ___  -1
    x37       C2        1
    x37       C3        1
    x37       C271      1
    x37       C384      1
    x37       C455      1
    x38       __OBJ___  -1
    x38       C118      1
    x38       C121      1
    x38       C122      1
    x39       __OBJ___  -1
    x39       C25       1
    x39       C423      1
    x40       __OBJ___  -1
    x40       C30       1
    x40       C88       1
    x40       C201      1
    x40       C204      1
    x40       C282      1
    x40       C359      1
    x41       __OBJ___  -1
    x41       C52       1
    x41       C271      1
    x42       __OBJ___  -1
    x42       C40       1
    x42       C86       1
    x42       C138      1
    x42       C372      1
    x42       C400      1
    x42       C547      1
    x43       __OBJ___  -1
    x43       C72       1
    x43       C146      1
    x43       C159      1
    x43       C210      1
    x43       C221      1
    x43       C261      1
    x43       C365      1
    x43       C476      1
    x44       __OBJ___  -1
    x44       C51       1
    x44       C72       1
    x44       C181      1
    x44       C312      1
    x45       __OBJ___  -1
    x45       C32       1
    x45       C217      1
    x45       C257      1
    x45       C371      1
    x46       __OBJ___  -1
    x46       C117      1
    x46       C286      1
    x46       C341      1
    x46       C497      1
    x47       __OBJ___  -1
    x47       C35       1
    x47       C45       1
    x47       C258      1
    x47       C346      1
    x47       C451      1
    x48       __OBJ___  -1
    x48       C12       1
    x48       C36       1
    x48       C48       1
    x48       C185      1
    x48       C200      1
    x48       C203      1
    x48       C362      1
    x48       C384      1
    x48       C395      1
    x48       C441      1
    x49       __OBJ___  -1
    x49       C20       1
    x49       C151      1
    x49       C241      1
    x49       C355      1
    x49       C431      1
    x49       C457      1
    x49       C557      1
    x50       __OBJ___  -1
    x50       C1        1
    x50       C6        1
    x50       C48       1
    x50       C332      1
    x50       C366      1
    x51       __OBJ___  -1
    x51       C102      1
    x51       C207      1
    x51       C314      1
    x51       C512      1
    x52       __OBJ___  -1
    x52       C100      1
    x52       C111      1
    x52       C287      1
    x52       C300      1
    x52       C373      1
    x52       C473      1
    x53       __OBJ___  -1
    x53       C112      1
    x53       C148      1
    x53       C187      1
    x53       C207      1
    x53       C260      1
    x53       C357      1
    x54       __OBJ___  -1
    x54       C21       1
    x54       C29       1
    x54       C127      1
    x54       C409      1
    x54       C457      1
    x54       C511      1
    x55       __OBJ___  -1
    x55       C50       1
    x55       C389      1
    x56       __OBJ___  -1
    x56       C79       1
    x56       C101      1
    x56       C208      1
    x56       C218      1
    x56       C339      1
    x56       C436      1
    x57       __OBJ___  -1
    x57       C192      1
    x57       C467      1
    x58       __OBJ___  -1
    x58       C39       1
    x58       C51       1
    x58       C60       1
    x58       C84       1
    x58       C115      1
    x58       C375      1
    x58       C544      1
    x59       __OBJ___  -1
    x59       C24       1
    x59       C103      1
    x59       C259      1
    x59       C407      1
    x59       C414      1
    x59       C438      1
    x60       __OBJ___  -1
    x60       C179      1
    x60       C243      1
    x60       C306      1
    x60       C404      1
    x60       C420      1
    x61       __OBJ___  -1
    x61       C97       1
    x61       C172      1
    x61       C251      1
    x61       C399      1
    x62       __OBJ___  -1
    x62       C182      1
    x62       C316      1
    x62       C329      1
    x62       C417      1
    x62       C432      1
    x63       __OBJ___  -1
    x63       C21       1
    x63       C216      1
    x63       C247      1
    x64       __OBJ___  -1
    x64       C26       1
    x64       C30       1
    x64       C321      1
    x65       __OBJ___  -1
    x65       C44       1
    x65       C150      1
    x65       C157      1
    x65       C187      1
    x65       C226      1
    x65       C393      1
    x65       C413      1
    x65       C416      1
    x66       __OBJ___  -1
    x66       C359      1
    x66       C383      1
    x66       C537      1
    x67       __OBJ___  -1
    x67       C172      1
    x67       C440      1
    x68       __OBJ___  -1
    x68       C98       1
    x68       C116      1
    x68       C229      1
    x68       C375      1
    x68       C433      1
    x69       __OBJ___  -1
    x69       C3        1
    x69       C232      1
    x69       C307      1
    x69       C413      1
    x69       C562      1
    x70       __OBJ___  -1
    x70       C145      1
    x70       C166      1
    x70       C294      1
    x70       C343      1
    x70       C391      1
    x71       __OBJ___  -1
    x71       C57       1
    x71       C114      1
    x71       C161      1
    x71       C366      1
    x71       C479      1
    x72       __OBJ___  -1
    x72       C239      1
    x72       C283      1
    x72       C297      1
    x72       C510      1
    x72       C552      1
    x73       __OBJ___  -1
    x73       C243      1
    x73       C295      1
    x73       C395      1
    x73       C473      1
    x74       __OBJ___  -1
    x74       C82       1
    x74       C340      1
    x74       C431      1
    x74       C432      1
    x75       __OBJ___  -1
    x75       C22       1
    x75       C73       1
    x75       C78       1
    x75       C189      1
    x75       C338      1
    x75       C502      1
    x76       __OBJ___  -1
    x76       C73       1
    x76       C91       1
    x76       C156      1
    x76       C242      1
    x76       C266      1
    x76       C558      1
    x77       __OBJ___  -1
    x77       C100      1
    x77       C301      1
    x77       C310      1
    x77       C320      1
    x77       C513      1
    x78       __OBJ___  -1
    x78       C153      1
    x78       C293      1
    x78       C376      1
    x78       C393      1
    x78       C435      1
    x78       C471      1
    x79       __OBJ___  -1
    x79       C17       1
    x79       C157      1
    x79       C371      1
    x79       C411      1
    x79       C437      1
    x79       C446      1
    x79       C565      1
    x80       __OBJ___  -1
    x80       C67       1
    x80       C205      1
    x80       C482      1
    x80       C562      1
    x82       __OBJ___  -1
    x82       C201      1
    x82       C340      1
    x82       C381      1
    x82       C440      1
    x83       __OBJ___  -1
    x83       C89       1
    x83       C159      1
    x84       __OBJ___  -1
    x84       C112      1
    x84       C444      1
    x84       C557      1
    x85       __OBJ___  -1
    x85       C126      1
    x85       C148      1
    x85       C372      1
    x85       C382      1
    x86       __OBJ___  -1
    x86       C78       1
    x86       C79       1
    x86       C104      1
    x86       C437      1
    x86       C543      1
    x87       __OBJ___  -1
    x87       C153      1
    x87       C444      1
    x88       __OBJ___  -1
    x88       C97       1
    x88       C125      1
    x88       C127      1
    x88       C195      1
    x88       C209      1
    x88       C379      1
    x88       C528      1
    x89       __OBJ___  -1
    x89       C92       1
    x89       C167      1
    x89       C350      1
    x89       C380      1
    x89       C382      1
    x89       C458      1
    x89       C490      1
    x89       C504      1
    x90       __OBJ___  -1
    x90       C118      1
    x90       C379      1
    x91       __OBJ___  -1
    x91       C36       1
    x91       C56       1
    x91       C396      1
    x91       C409      1
    x92       __OBJ___  -1
    x92       C23       1
    x92       C74       1
    x92       C261      1
    x92       C353      1
    x92       C543      1
    x93       __OBJ___  -1
    x93       C96       1
    x93       C114      1
    x93       C252      1
    x93       C534      1
    x94       __OBJ___  -1
    x94       C12       1
    x94       C119      1
    x94       C165      1
    x94       C333      1
    x95       __OBJ___  -1
    x95       C43       1
    x95       C94       1
    x95       C441      1
    x96       __OBJ___  -1
    x96       C197      1
    x96       C255      1
    x96       C428      1
    x96       C550      1
    x97       __OBJ___  -1
    x97       C226      1
    x97       C381      1
    x97       C504      1
    x98       __OBJ___  -1
    x98       C471      1
    x98       C513      1
    x99       __OBJ___  -1
    x99       C11       1
    x99       C17       1
    x99       C151      1
    x100      __OBJ___  -1
    x100      C171      1
    x100      C268      1
    x100      C350      1
    x100      C478      1
    x100      C482      1
    x101      __OBJ___  -1
    x101      C84       1
    x101      C268      1
    x101      C277      1
    x102      __OBJ___  -1
    x102      C57       1
    x102      C205      1
    x102      C300      1
    x102      C559      1
    x103      __OBJ___  -1
    x103      C81       1
    x103      C117      1
    x103      C314      1
    x103      C528      1
    x104      __OBJ___  -1
    x104      C41       1
    x104      C195      1
    x104      C534      1
    x105      __OBJ___  -1
    x105      C35       1
    x105      C279      1
    x105      C355      1
    x106      __OBJ___  -1
    x106      C34       1
    x106      C86       1
    x106      C175      1
    x106      C242      1
    x106      C448      1
    x107      __OBJ___  -1
    x107      C322      1
    x107      C323      1
    x107      C460      1
    x107      C510      1
    x108      __OBJ___  -1
    x108      C44       1
    x108      C47       1
    x108      C162      1
    x108      C396      1
    x109      __OBJ___  -1
    x109      C154      1
    x109      C278      1
    x109      C387      1
    x110      __OBJ___  -1
    x110      C132      1
    x110      C302      1
    x110      C327      1
    x110      C420      1
    x111      __OBJ___  -1
    x111      C59       1
    x111      C83       1
    x111      C182      1
    x111      C191      1
    x111      C266      1
    x112      __OBJ___  -1
    x112      C163      1
    x112      C236      1
    x112      C353      1
    x112      C448      1
    x112      C503      1
    x113      __OBJ___  -1
    x113      C39       1
    x113      C83       1
    x113      C535      1
    x114      __OBJ___  -1
    x114      C208      1
    x114      C218      1
    x114      C330      1
    x115      __OBJ___  -1
    x115      C69       1
    x115      C101      1
    x115      C339      1
    x116      __OBJ___  -1
    x116      C133      1
    x116      C210      1
    x116      C488      1
    x116      C559      1
    x117      __OBJ___  -1
    x117      C6        1
    x117      C262      1
    x118      __OBJ___  -1
    x118      C26       1
    x118      C133      1
    x118      C338      1
    x118      C518      1
    x118      C556      1
    x119      __OBJ___  -1
    x119      C9        1
    x119      C387      1
    x119      C552      1
    x120      __OBJ___  -1
    x120      C312      1
    x120      C329      1
    x120      C422      1
    x120      C512      1
    x121      __OBJ___  -1
    x121      C243      1
    x121      C438      1
    x122      __OBJ___  -1
    x122      C60       1
    x122      C110      1
    x123      __OBJ___  -1
    x123      C230      1
    x123      C391      1
    x123      C394      1
    x123      C411      1
    x123      C499      1
    x124      __OBJ___  -1
    x124      C103      1
    x124      C181      1
    x125      __OBJ___  -1
    x125      C143      1
    x125      C209      1
    x125      C306      1
    x125      C537      1
    x126      __OBJ___  -1
    x126      C138      1
    x126      C171      1
    x126      C425      1
    x127      __OBJ___  -1
    x127      C258      1
    x127      C527      1
    x127      C535      1
    x128      __OBJ___  -1
    x128      C28       1
    x128      C281      1
    x128      C318      1
    x129      __OBJ___  -1
    x129      C18       1
    x129      C32       1
    x129      C523      1
    x130      __OBJ___  -1
    x130      C74       1
    x130      C230      1
    x130      C245      1
    x130      C251      1
    x131      __OBJ___  -1
    x131      C15       1
    x131      C126      1
    x131      C185      1
    x131      C394      1
    x132      __OBJ___  -1
    x132      C274      1
    x132      C370      1
    x133      __OBJ___  -1
    x133      C315      1
    x133      C506      1
    x133      C518      1
    x134      __OBJ___  -1
    x134      C145      1
    x134      C204      1
    x134      C259      1
    x134      C365      1
    x135      __OBJ___  -1
    x135      C90       1
    x135      C252      1
    x135      C414      1
    x136      __OBJ___  -1
    x136      C177      1
    x136      C222      1
    x136      C250      1
    x136      C260      1
    x136      C466      1
    x136      C511      1
    x137      __OBJ___  -1
    x137      C70       1
    x137      C238      1
    x137      C250      1
    x137      C380      1
    x138      __OBJ___  -1
    x138      C76       1
    x138      C323      1
    x138      C424      1
    x138      C488      1
    x139      __OBJ___  -1
    x139      C424      1
    x139      C433      1
    x139      C491      1
    x140      __OBJ___  -1
    x140      C98       1
    x140      C311      1
    x141      __OBJ___  -1
    x141      C85       1
    x141      C237      1
    x141      C295      1
    x142      __OBJ___  -1
    x142      C50       1
    x142      C354      1
    x142      C451      1
    x143      __OBJ___  -1
    x143      C177      1
    x143      C282      1
    x143      C337      1
    x143      C362      1
    x144      __OBJ___  -1
    x144      C41       1
    x144      C91       1
    x144      C466      1
    x145      __OBJ___  -1
    x145      C167      1
    x145      C206      1
    x145      C446      1
    x146      __OBJ___  -1
    x146      C225      1
    x146      C490      1
    x147      __OBJ___  -1
    x147      C85       1
    x147      C245      1
    x147      C254      1
    x148      __OBJ___  -1
    x148      C69       1
    x148      C222      1
    x148      C479      1
    x148      C503      1
    x149      __OBJ___  -1
    x149      C61       1
    x149      C434      1
    x150      __OBJ___  -1
    x150      C22       1
    x150      C92       1
    MARKER    'MARKER'                 'INTEND'
RHS
    RHS       __OBJ___  1
    RHS       C1        1
    RHS       C2        1
    RHS       C3        1
    RHS       C6        1
    RHS       C9        1
    RHS       C11       1
    RHS       C12       1
    RHS       C15       1
    RHS       C17       1
    RHS       C18       1
    RHS       C20       1
    RHS       C21       1
    RHS       C22       1
    RHS       C23       1
    RHS       C24       1
    RHS       C25       1
    RHS       C26       1
    RHS       C28       1
    RHS       C29       1
    RHS       C30       1
    RHS       C32       1
    RHS       C34       1
    RHS       C35       1
    RHS       C36       1
    RHS       C38       1
    RHS       C39       1
    RHS       C40       1
    RHS       C41       1
    RHS       C43       1
    RHS       C44       1
    RHS       C45       1
    RHS       C47       1
    RHS       C48       1
    RHS       C50       1
    RHS       C51       1
    RHS       C52       1
    RHS       C54       1
    RHS       C55       1
    RHS       C56       1
    RHS       C57       1
    RHS       C59       1
    RHS       C60       1
    RHS       C61       1
    RHS       C67       1
    RHS       C68       1
    RHS       C69       1
    RHS       C70       1
    RHS       C72       1
    RHS       C73       1
    RHS       C74       1
    RHS       C76       1
    RHS       C78       1
    RHS       C79       1
    RHS       C81       1
    RHS       C82       1
    RHS       C83       1
    RHS       C84       1
    RHS       C85       1
    RHS       C86       1
    RHS       C88       1
    RHS       C89       1
    RHS       C90       1
    RHS       C91       1
    RHS       C92       1
    RHS       C94       1
    RHS       C96       1
    RHS       C97       1
    RHS       C98       1
    RHS       C100      1
    RHS       C101      1
    RHS       C102      1
    RHS       C103      1
    RHS       C104      1
    RHS       C109      1
    RHS       C110      1
    RHS       C111      1
    RHS       C112      1
    RHS       C113      1
    RHS       C114      1
    RHS       C115      1
    RHS       C116      1
    RHS       C117      1
    RHS       C118      1
    RHS       C119      1
    RHS       C120      1
    RHS       C121      1
    RHS       C122      1
    RHS       C125      1
    RHS       C126      1
    RHS       C127      1
    RHS       C129      1
    RHS       C132      1
    RHS       C133      1
    RHS       C138      1
    RHS       C143      1
    RHS       C145      1
    RHS       C146      1
    RHS       C148      1
    RHS       C150      1
    RHS       C151      1
    RHS       C153      1
    RHS       C154      1
    RHS       C156      1
    RHS       C157      1
    RHS       C159      1
    RHS       C161      1
    RHS       C162      1
    RHS       C163      1
    RHS       C165      1
    RHS       C166      1
    RHS       C167      1
    RHS       C171      1
    RHS       C172      1
    RHS       C175      1
    RHS       C177      1
    RHS       C179      1
    RHS       C181      1
    RHS       C182      1
    RHS       C185      1
    RHS       C187      1
    RHS       C189      1
    RHS       C191      1
    RHS       C192      1
    RHS       C195      1
    RHS       C197      1
    RHS       C200      1
    RHS       C201      1
    RHS       C202      1
    RHS       C203      1
    RHS       C204      1
    RHS       C205      1
    RHS       C206      1
    RHS       C207      1
    RHS       C208      1
    RHS       C209      1
    RHS       C210      1
    RHS       C211      1
    RHS       C215      1
    RHS       C216      1
    RHS       C217      1
    RHS       C218      1
    RHS       C221      1
    RHS       C222      1
    RHS       C225      1
    RHS       C226      1
    RHS       C229      1
    RHS       C230      1
    RHS       C232      1
    RHS       C236      1
    RHS       C237      1
    RHS       C238      1
    RHS       C239      1
    RHS       C241      1
    RHS       C242      1
    RHS       C243      1
    RHS       C245      1
    RHS       C247      1
    RHS       C250      1
    RHS       C251      1
    RHS       C252      1
    RHS       C254      1
    RHS       C255      1
    RHS       C257      1
    RHS       C258      1
    RHS       C259      1
    RHS       C260      1
    RHS       C261      1
    RHS       C262      1
    RHS       C266      1
    RHS       C268      1
    RHS       C271      1
    RHS       C273      1
    RHS       C274      1
    RHS       C277      1
    RHS       C278      1
    RHS       C279      1
    RHS       C281      1
    RHS       C282      1
    RHS       C283      1
    RHS       C284      1
    RHS       C286      1
    RHS       C287      1
    RHS       C293      1
    RHS       C294      1
    RHS       C295      1
    RHS       C296      1
    RHS       C297      1
    RHS       C300      1
    RHS       C301      1
    RHS       C302      1
    RHS       C306      1
    RHS       C307      1
    RHS       C310      1
    RHS       C311      1
    RHS       C312      1
    RHS       C313      1
    RHS       C314      1
    RHS       C315      1
    RHS       C316      1
    RHS       C318      1
    RHS       C320      1
    RHS       C321      1
    RHS       C322      1
    RHS       C323      1
    RHS       C324      1
    RHS       C326      1
    RHS       C327      1
    RHS       C329      1
    RHS       C330      1
    RHS       C332      1
    RHS       C333      1
    RHS       C337      1
    RHS       C338      1
    RHS       C339      1
    RHS       C340      1
    RHS       C341      1
    RHS       C343      1
    RHS       C346      1
    RHS       C349      1
    RHS       C350      1
    RHS       C353      1
    RHS       C354      1
    RHS       C355      1
    RHS       C357      1
    RHS       C359      1
    RHS       C362      1
    RHS       C365      1
    RHS       C366      1
    RHS       C370      1
    RHS       C371      1
    RHS       C372      1
    RHS       C373      1
    RHS       C374      1
    RHS       C375      1
    RHS       C376      1
    RHS       C377      1
    RHS       C379      1
    RHS       C380      1
    RHS       C381      1
    RHS       C382      1
    RHS       C383      1
    RHS       C384      1
    RHS       C387      1
    RHS       C389      1
    RHS       C390      1
    RHS       C391      1
    RHS       C393      1
    RHS       C394      1
    RHS       C395      1
    RHS       C396      1
    RHS       C399      1
    RHS       C400      1
    RHS       C404      1
    RHS       C407      1
    RHS       C409      1
    RHS       C411      1
    RHS       C412      1
    RHS       C413      1
    RHS       C414      1
    RHS       C416      1
    RHS       C417      1
    RHS       C420      1
    RHS       C422      1
    RHS       C423      1
    RHS       C424      1
    RHS       C425      1
    RHS       C428      1
    RHS       C431      1
    RHS       C432      1
    RHS       C433      1
    RHS       C434      1
    RHS       C435      1
    RHS       C436      1
    RHS       C437      1
    RHS       C438      1
    RHS       C440      1
    RHS       C441      1
    RHS       C444      1
    RHS       C445      1
    RHS       C446      1
    RHS       C447      1
    RHS       C448      1
    RHS       C451      1
    RHS       C455      1
    RHS       C457      1
    RHS       C458      1
    RHS       C460      1
    RHS       C466      1
    RHS       C467      1
    RHS       C471      1
    RHS       C473      1
    RHS       C476      1
    RHS       C478      1
    RHS       C479      1
    RHS       C482      1
    RHS       C488      1
    RHS       C489      1
    RHS       C490      1
    RHS       C491      1
    RHS       C492      1
    RHS       C497      1
    RHS       C499      1
    RHS       C502      1
    RHS       C503      1
    RHS       C504      1
    RHS       C506      1
    RHS       C509      1
    RHS       C510      1
    RHS       C511      1
    RHS       C512      1
    RHS       C513      1
    RHS       C518      1
    RHS       C523      1
    RHS       C526      1
    RHS       C527      1
    RHS       C528      1
    RHS       C534      1
    RHS       C535      1
    RHS       C537      1
    RHS       C539      1
    RHS       C543      1
    RHS       C544      1
    RHS       C547      1
    RHS       C548      1
    RHS       C550      1
    RHS       C552      1
    RHS       C556      1
    RHS       C557      1
    RHS       C558      1
    RHS       C559      1
    RHS       C562      1
    RHS       C565      1
BOUNDS
 UP BOUND     x1        1
 UP BOUND     x2        1
 UP BOUND     x3        1
 UP BOUND     x4        1
 UP BOUND     x7        1
 UP BOUND     x9        1
 UP BOUND     x10       1
 UP BOUND     x12       1
 UP BOUND     x14       1
 UP BOUND     x15       1
 UP BOUND     x16       1
 UP BOUND     x17       1
 UP BOUND     x18       1
 UP BOUND     x19       1
 UP BOUND     x20       1
 UP BOUND     x21       1
 UP BOUND     x22       1
 UP BOUND     x23       1
 UP BOUND     x24       1
 UP BOUND     x25       1
 UP BOUND     x26       1
 UP BOUND     x27       1
 UP BOUND     x28       1
 UP BOUND     x29       1
 UP BOUND     x30       1
 UP BOUND     x31       1
 UP BOUND     x32       1
 UP BOUND     x33       1
 UP BOUND     x34       1
 UP BOUND     x35       1
 UP BOUND     x36       1
 UP BOUND     x37       1
 UP BOUND     x38       1
 UP BOUND     x39       1
 UP BOUND     x40       1
 UP BOUND     x41       1
 UP BOUND     x42       1
 UP BOUND     x43       1
 UP BOUND     x44       1
 UP BOUND     x45       1
 UP BOUND     x46       1
 UP BOUND     x47       1
 UP BOUND     x48       1
 UP BOUND     x49       1
 UP BOUND     x50       1
 UP BOUND     x51       1
 UP BOUND     x52       1
 UP BOUND     x53       1
 UP BOUND     x54       1
 UP BOUND     x55       1
 UP BOUND     x56       1
 UP BOUND     x57       1
 UP BOUND     x58       1
 UP BOUND     x59       1
 UP BOUND     x60       1
 UP BOUND     x61       1
 UP BOUND     x62       1
 UP BOUND     x63       1
 UP BOUND     x64       1
 UP BOUND     x65       1
 UP BOUND     x66       1
 UP BOUND     x67       1
 UP BOUND     x68       1
 UP BOUND     x69       1
 UP BOUND     x70       1
 UP BOUND     x71       1
 UP BOUND     x72       1
 UP BOUND     x73       1
 UP BOUND     x74       1
 UP BOUND     x75       1
 UP BOUND     x76       1
 UP BOUND     x77       1
 UP BOUND     x78       1
 UP BOUND     x79       1
 UP BOUND     x80       1
 UP BOUND     x82       1
 UP BOUND     x83       1
 UP BOUND     x84       1
 UP BOUND     x85       1
 UP BOUND     x86       1
 UP BOUND     x87       1
 UP BOUND     x88       1
 UP BOUND     x89       1
 UP BOUND     x90       1
 UP BOUND     x91       1
 UP BOUND     x92       1
 UP BOUND     x93       1
 UP BOUND     x94       1
 UP BOUND     x95       1
 UP BOUND     x96       1
 UP BOUND     x97       1
 UP BOUND     x98       1
 UP BOUND     x99       1
 UP BOUND     x100      1
 UP BOUND     x101      1
 UP BOUND     x102      1
 UP BOUND     x103      1
 UP BOUND     x104      1
 UP BOUND     x105      1
 UP BOUND     x106      1
 UP BOUND     x107      1
 UP BOUND     x108      1
 UP BOUND     x109      1
 UP BOUND     x110      1
 UP BOUND     x111      1
 UP BOUND     x112      1
 UP BOUND     x113      1
 UP BOUND     x114      1
 UP BOUND     x115      1
 UP BOUND     x116      1
 UP BOUND     x117      1
 UP BOUND     x118      1
 UP BOUND     x119      1
 UP BOUND     x120      1
 UP BOUND     x121      1
 UP BOUND     x122      1
 UP BOUND     x123      1
 UP BOUND     x124      1
 UP BOUND     x125      1
 UP BOUND     x126      1
 UP BOUND     x127      1
 UP BOUND     x128      1
 UP BOUND     x129      1
 UP BOUND     x130      1
 UP BOUND     x131      1
 UP BOUND     x132      1
 UP BOUND     x133      1
 UP BOUND     x134      1
 UP BOUND     x135      1
 UP BOUND     x136      1
 UP BOUND     x137      1
 UP BOUND     x138      1
 UP BOUND     x139      1
 UP BOUND     x140      1
 UP BOUND     x141      1
 UP BOUND     x142      1
 UP BOUND     x143      1
 UP BOUND     x144      1
 UP BOUND     x145      1
 UP BOUND     x146      1
 UP BOUND     x147      1
 UP BOUND     x148      1
 UP BOUND     x149      1
 UP BOUND     x150      1
ENDATA
